NAME : mtspf
COMMENT : file for mtspf test
TYPE : ATSP
DIMENSION : 17
EDGE_WEIGHT_TYPE : EXPLICIT
EDGE_WEIGHT_FORMAT : FULL_MATRIX
EDGE_WEIGHT_SECTION
999999 999999 999999 999999 999999 4 9 7 10 7 7 9 4 9 7 10 7 
999999 999999 999999 999999 999999 4 7 5 8 5 7 7 4 7 5 8 5 
999999 999999 999999 999999 999999 4 5 5 8 5 7 7 4 5 5 8 5 
999999 999999 999999 999999 999999 12 5 7 4 7 7 5 12 5 7 4 7 
999999 999999 999999 999999 999999 14 7 9 6 9 9 7 14 7 9 6 9 
999999 999999 999999 999999 999999 0 9 9 8 5 5 7 0 9 9 8 5 
999999 999999 999999 999999 999999 9 0 2 5 10 12 10 9 0 2 5 10 
999999 999999 999999 999999 999999 9 2 0 5 10 12 10 9 2 0 5 10 
999999 999999 999999 999999 999999 8 5 5 0 5 7 5 8 5 5 0 5 
999999 999999 999999 999999 999999 5 10 10 5 0 2 2 5 10 10 5 0 
999999 999999 999999 999999 999999 5 12 12 7 2 0 2 5 12 12 7 2 
999999 999999 999999 999999 999999 7 10 10 5 2 2 0 7 10 10 5 2 
0 0 0 0 0 999999 999999 999999 999999 999999 999999 999999 999999 999999 999999 999999 999999 
0 0 0 0 0 999999 999999 999999 999999 999999 999999 999999 999999 999999 999999 999999 999999 
0 0 0 0 0 999999 999999 999999 999999 999999 999999 999999 999999 999999 999999 999999 999999 
0 0 0 0 0 999999 999999 999999 999999 999999 999999 999999 999999 999999 999999 999999 999999 
0 0 0 0 0 999999 999999 999999 999999 999999 999999 999999 999999 999999 999999 999999 999999 
